webassembly/ejemplos_dzn/folder10_json_9.dzn
TERM = { '.', 's(2)', 's(4)', 'in_1', 'local_0', 'local_1', 'in_6', 'in_2', 'in_4', 'in_3', 's(1)', 's(0)', 'in_7', 'in_5', 's(3)', 'in_0'};
null = '.';
s = 10;
n = 13;
ndeps = 0;
max_registers_sz = 5;
NR = 2;
registers = [|'local_0', 's(1)', |'local_1', 's(0)'|];
dependencies = [| |];
GET_ENUM = { GET1, GET2, GET3, GET4, GET5, GET6, GET7};
SET_ENUM = { SET1, SET2, SET3, SET4, SET5, SET6, SET7};
TEE_ENUM = { TEE1, TEE2, TEE3, TEE4, TEE5, TEE6, TEE7};
N = 5;
OP = { 'i32.add_0', 'i32.load8_s_7', 'i32.add_1', 'i32.load16_u_9', 'i32.add_2' };
in_ops = [2, 1, 2, 1, 2 ];
out_ops = [1, 1, 1, 1, 1 ];
in1 = ['in_6', 's(2)', 'in_4', 's(1)', 'in_1' ];
in2 = ['in_7', '.', 'in_5', '.', 'in_2' ];
in3 = ['.', '.', '.', '.', '.' ];
out1 = ['s(2)', 's(3)', 's(1)', 's(4)', 's(0)' ];
out2 = ['.', '.', '.', '.', '.' ];
out3 = ['.', '.', '.', '.', '.' ];
comm = [true, false, true, false, true ];
gas = [1, 1, 1, 1, 1 ];
sz = [1, 1, 1, 1, 1 ];
stor = [false, false, false, false, false ];
lb = [ 1, 1, 1, 1, 1 ];
ub = [ 10, 10, 10, 10, 10 ];
startstack = [ 'in_0', 'in_1', 'in_2', 'in_3', 'in_4', 'in_5', 'in_6', 'in_7', null, null, null, null, null ];
endstack = [ 's(4)', 's(3)', null, null, null, null, null, null, null, null, null, null, null ];
