webassembly/ejemplos_results/folder10_json_9.txt
value = 10;
fgas = [2, 1, 1, 1, 1, 1, 1, 1, 2, 1];
fsize = [1, 1, 1, 1, 1, 1, 1, 1, 1, 1];
states = 
[|   in_0,   in_1, in_2, in_3, in_4, in_5, in_6, in_7, '.', '.', '.', '.', '.'
 |   in_1,   in_2, in_3, in_4, in_5, in_6, in_7,  '.', '.', '.', '.', '.', '.'
 |   in_1,   in_2, in_3, in_4, in_5, in_6, in_7,  '.', '.', '.', '.', '.', '.'
 | 's(0)',   in_5, in_4, in_5, in_6, in_7,  '.',  '.', '.', '.', '.', '.', '.'
 |   in_5,   in_4, in_5, in_6, in_7,  '.',  '.',  '.', '.', '.', '.', '.', '.'
 | 's(1)',   in_7, in_6, in_7,  '.',  '.',  '.',  '.', '.', '.', '.', '.', '.'
 |   in_7,   in_6, in_7,  '.',  '.',  '.',  '.',  '.', '.', '.', '.', '.', '.'
 | 's(2)',   in_0,  '.',  '.',  '.',  '.',  '.',  '.', '.', '.', '.', '.', '.'
 | 's(3)', 's(1)',  '.',  '.',  '.',  '.',  '.',  '.', '.', '.', '.', '.', '.'
 | 's(1)',    '.',  '.',  '.',  '.',  '.',  '.',  '.', '.', '.', '.', '.', '.'
 | 's(4)', 's(3)',  '.',  '.',  '.',  '.',  '.',  '.', '.', '.', '.', '.', '.'
 |];
register_states = 
[| local_0, local_1, '.', '.', '.', '.', '.'
 | local_0, local_1, '.', '.', '.', '.', '.'
 | local_0,    in_1, '.', '.', '.', '.', '.'
 | local_0,    in_1, '.', '.', '.', '.', '.'
 | local_0,  's(0)', '.', '.', '.', '.', '.'
 | local_0,  's(0)', '.', '.', '.', '.', '.'
 |  's(1)',  's(0)', '.', '.', '.', '.', '.'
 |  's(1)',  's(0)', '.', '.', '.', '.', '.'
 |  's(1)',  's(0)', '.', '.', '.', '.', '.'
 |  's(1)',  's(0)', '.', '.', '.', '.', '.'
 |  's(1)',  's(0)', '.', '.', '.', '.', '.'
 |];
program = [POP, TEE(TEE2), O('i32.add_2'), S(SET2), O('i32.add_1'), S(SET1), O('i32.add_0'), O('i32.load8_s_7'), POP, O('i32.load16_u_9')];
% time elapsed: 0.10 s
----------
value = 9;
fgas = [2, 1, 1, 1, 1, 1, 1, 2, 1, 0];
fsize = [1, 1, 1, 1, 1, 1, 1, 1, 1, 1];
states = 
[|   in_0,   in_1, in_2, in_3, in_4, in_5, in_6, in_7, '.', '.', '.', '.', '.'
 |   in_1,   in_2, in_3, in_4, in_5, in_6, in_7,  '.', '.', '.', '.', '.', '.'
 | 's(0)',   in_5, in_4, in_5, in_6, in_7,  '.',  '.', '.', '.', '.', '.', '.'
 |   in_5,   in_4, in_5, in_6, in_7,  '.',  '.',  '.', '.', '.', '.', '.', '.'
 | 's(1)',   in_7, in_6, in_7,  '.',  '.',  '.',  '.', '.', '.', '.', '.', '.'
 |   in_7,   in_6, in_7,  '.',  '.',  '.',  '.',  '.', '.', '.', '.', '.', '.'
 | 's(2)',   in_0,  '.',  '.',  '.',  '.',  '.',  '.', '.', '.', '.', '.', '.'
 | 's(3)', 's(1)',  '.',  '.',  '.',  '.',  '.',  '.', '.', '.', '.', '.', '.'
 | 's(1)',    '.',  '.',  '.',  '.',  '.',  '.',  '.', '.', '.', '.', '.', '.'
 | 's(4)', 's(3)',  '.',  '.',  '.',  '.',  '.',  '.', '.', '.', '.', '.', '.'
 | 's(4)', 's(3)',  '.',  '.',  '.',  '.',  '.',  '.', '.', '.', '.', '.', '.'
 |];
register_states = 
[| local_0, local_1, '.', '.', '.', '.', '.'
 | local_0, local_1, '.', '.', '.', '.', '.'
 | local_0, local_1, '.', '.', '.', '.', '.'
 | local_0,  's(0)', '.', '.', '.', '.', '.'
 | local_0,  's(0)', '.', '.', '.', '.', '.'
 |  's(1)',  's(0)', '.', '.', '.', '.', '.'
 |  's(1)',  's(0)', '.', '.', '.', '.', '.'
 |  's(1)',  's(0)', '.', '.', '.', '.', '.'
 |  's(1)',  's(0)', '.', '.', '.', '.', '.'
 |  's(1)',  's(0)', '.', '.', '.', '.', '.'
 |  's(1)',  's(0)', '.', '.', '.', '.', '.'
 |];
program = [POP, O('i32.add_2'), S(SET2), O('i32.add_1'), S(SET1), O('i32.add_0'), O('i32.load8_s_7'), POP, O('i32.load16_u_9'), NOP];
% time elapsed: 0.11 s
----------
==========
% time elapsed: 0.11 s
% [value > 8]
